p cnf 960 2463
51 -2 -1 0
-51 2 0
-51 1 0
52 -51 -3 0
-52 51 0
-52 3 0
53 -693 -4 0
-53 693 0
-53 4 0
54 -53 -6 0
-54 53 0
-54 6 0
55 -694 -695 0
-55 694 0
-55 695 0
56 -8 -7 0
-56 8 0
-56 7 0
57 -56 -9 0
-57 56 0
-57 9 0
58 -696 -55 0
-58 696 0
-58 55 0
59 -697 -698 0
-59 697 0
-59 698 0
60 -59 -12 0
-60 59 0
-60 12 0
61 -699 -58 0
-61 699 0
-61 58 0
62 -700 -13 0
-62 700 0
-62 13 0
63 -62 -698 0
-63 62 0
-63 698 0
64 -701 -61 0
-64 701 0
-64 61 0
65 -16 -15 0
-65 16 0
-65 15 0
66 -65 -17 0
-66 65 0
-66 17 0
67 -702 -64 0
-67 702 0
-67 64 0
68 -703 -704 0
-68 703 0
-68 704 0
69 -68 -10 0
-69 68 0
-69 10 0
70 -705 -67 0
-70 705 0
-70 67 0
71 -19 -706 0
-71 19 0
-71 706 0
72 -71 -707 0
-72 71 0
-72 707 0
73 -708 -70 0
-73 708 0
-73 70 0
74 -21 -4 0
-74 21 0
-74 4 0
75 -74 -2 0
-75 74 0
-75 2 0
76 -709 -73 0
-76 709 0
-76 73 0
77 -710 -7 0
-77 710 0
-77 7 0
78 -77 -22 0
-78 77 0
-78 22 0
79 -711 -76 0
-79 711 0
-79 76 0
80 -23 -11 0
-80 23 0
-80 11 0
81 -80 -24 0
-81 80 0
-81 24 0
82 -712 -79 0
-82 712 0
-82 79 0
83 -713 -714 0
-83 713 0
-83 714 0
84 -83 -3 0
-84 83 0
-84 3 0
85 -715 -82 0
-85 715 0
-85 82 0
86 -716 -26 0
-86 716 0
-86 26 0
87 -86 -717 0
-87 86 0
-87 717 0
88 -718 -85 0
-88 718 0
-88 85 0
89 -710 -719 0
-89 710 0
-89 719 0
90 -89 -26 0
-90 89 0
-90 26 0
91 -720 -88 0
-91 720 0
-91 88 0
92 -29 -13 0
-92 29 0
-92 13 0
93 -92 -721 0
-93 92 0
-93 721 0
94 -722 -91 0
-94 722 0
-94 91 0
95 -723 -724 0
-95 723 0
-95 724 0
96 -95 -31 0
-96 95 0
-96 31 0
97 -725 -94 0
-97 725 0
-97 94 0
98 -7 -5 0
-98 7 0
-98 5 0
99 -98 -726 0
-99 98 0
-99 726 0
100 -727 -97 0
-100 727 0
-100 97 0
101 -728 -729 0
-101 728 0
-101 729 0
102 -101 -2 0
-102 101 0
-102 2 0
103 -730 -100 0
-103 730 0
-103 100 0
104 -731 -33 0
-104 731 0
-104 33 0
105 -104 -723 0
-105 104 0
-105 723 0
106 -732 -103 0
-106 732 0
-106 103 0
107 -733 -734 0
-107 733 0
-107 734 0
108 -107 -735 0
-108 107 0
-108 735 0
109 -736 -106 0
-109 736 0
-109 106 0
110 -737 -4 0
-110 737 0
-110 4 0
111 -110 -6 0
-111 110 0
-111 6 0
112 -738 -109 0
-112 738 0
-112 109 0
113 -24 -21 0
-113 24 0
-113 21 0
114 -113 -37 0
-114 113 0
-114 37 0
115 -739 -112 0
-115 739 0
-115 112 0
116 -740 -14 0
-116 740 0
-116 14 0
117 -116 -12 0
-117 116 0
-117 12 0
118 -741 -115 0
-118 741 0
-118 115 0
119 -39 -14 0
-119 39 0
-119 14 0
120 -119 -40 0
-120 119 0
-120 40 0
121 -742 -118 0
-121 742 0
-121 118 0
122 -42 -41 0
-122 42 0
-122 41 0
123 -122 -743 0
-123 122 0
-123 743 0
124 -744 -121 0
-124 744 0
-124 121 0
125 -731 -728 0
-125 731 0
-125 728 0
126 -125 -2 0
-126 125 0
-126 2 0
127 -745 -124 0
-127 745 0
-127 124 0
128 -110 -721 0
-128 110 0
-128 721 0
129 -746 -127 0
-129 746 0
-129 127 0
130 -15 -12 0
-130 15 0
-130 12 0
131 -130 -43 0
-131 130 0
-131 43 0
132 -747 -129 0
-132 747 0
-132 129 0
133 -44 -25 0
-133 44 0
-133 25 0
134 -133 -17 0
-134 133 0
-134 17 0
135 -748 -132 0
-135 748 0
-135 132 0
136 -45 -13 0
-136 45 0
-136 13 0
137 -136 -749 0
-137 136 0
-137 749 0
138 -750 -135 0
-138 750 0
-138 135 0
139 -38 -36 0
-139 38 0
-139 36 0
140 -139 -723 0
-140 139 0
-140 723 0
141 -751 -138 0
-141 751 0
-141 138 0
142 -45 -16 0
-142 45 0
-142 16 0
143 -142 -27 0
-143 142 0
-143 27 0
144 -752 -141 0
-144 752 0
-144 141 0
145 -753 -2 0
-145 753 0
-145 2 0
146 -145 -754 0
-146 145 0
-146 754 0
147 -755 -144 0
-147 755 0
-147 144 0
148 -39 -697 0
-148 39 0
-148 697 0
149 -148 -6 0
-149 148 0
-149 6 0
150 -756 -147 0
-150 756 0
-150 147 0
151 -757 -731 0
-151 757 0
-151 731 0
152 -151 -726 0
-152 151 0
-152 726 0
153 -758 -150 0
-153 758 0
-153 150 0
154 -5 -1 0
-154 5 0
-154 1 0
155 -154 -724 0
-155 154 0
-155 724 0
156 -759 -153 0
-156 759 0
-156 153 0
157 -760 -24 0
-157 760 0
-157 24 0
158 -157 -26 0
-158 157 0
-158 26 0
159 -761 -156 0
-159 761 0
-159 156 0
160 -46 -731 0
-160 46 0
-160 731 0
161 -160 -47 0
-161 160 0
-161 47 0
162 -762 -159 0
-162 762 0
-162 159 0
163 -48 -737 0
-163 48 0
-163 737 0
164 -163 -49 0
-164 163 0
-164 49 0
165 -763 -162 0
-165 763 0
-165 162 0
166 -47 -764 0
-166 47 0
-166 764 0
167 -166 -765 0
-167 166 0
-167 765 0
168 -766 -165 0
-168 766 0
-168 165 0
169 -48 -707 0
-169 48 0
-169 707 0
170 -169 -37 0
-170 169 0
-170 37 0
171 -767 -168 0
-171 767 0
-171 168 0
172 -760 -768 0
-172 760 0
-172 768 0
173 -172 -3 0
-173 172 0
-173 3 0
174 -769 -171 0
-174 769 0
-174 171 0
175 -757 -13 0
-175 757 0
-175 13 0
176 -175 -45 0
-176 175 0
-176 45 0
177 -770 -174 0
-177 770 0
-177 174 0
178 -30 -706 0
-178 30 0
-178 706 0
179 -178 -771 0
-179 178 0
-179 771 0
180 -772 -177 0
-180 772 0
-180 177 0
181 -39 -19 0
-181 39 0
-181 19 0
182 -181 -24 0
-182 181 0
-182 24 0
183 -773 -180 0
-183 773 0
-183 180 0
184 -757 -16 0
-184 757 0
-184 16 0
185 -184 -754 0
-185 184 0
-185 754 0
186 -774 -183 0
-186 774 0
-186 183 0
187 -15 -719 0
-187 15 0
-187 719 0
188 -187 -16 0
-188 187 0
-188 16 0
189 -775 -186 0
-189 775 0
-189 186 0
190 -38 -4 0
-190 38 0
-190 4 0
191 -190 -13 0
-191 190 0
-191 13 0
192 -776 -189 0
-192 776 0
-192 189 0
193 -777 -778 0
-193 777 0
-193 778 0
194 -193 -765 0
-194 193 0
-194 765 0
195 -779 -192 0
-195 779 0
-195 192 0
196 -49 -731 0
-196 49 0
-196 731 0
197 -196 -780 0
-197 196 0
-197 780 0
198 -781 -195 0
-198 781 0
-198 195 0
199 -50 -9 0
-199 50 0
-199 9 0
200 -199 -3 0
-200 199 0
-200 3 0
201 -782 -198 0
-201 782 0
-201 198 0
202 -38 -737 0
-202 38 0
-202 737 0
203 -202 -729 0
-203 202 0
-203 729 0
204 -783 -201 0
-204 783 0
-204 201 0
205 -714 -3 0
-205 714 0
-205 3 0
206 -205 -49 0
-206 205 0
-206 49 0
207 -784 -204 0
-207 784 0
-207 204 0
208 -45 -785 0
-208 45 0
-208 785 0
209 -208 -28 0
-209 208 0
-209 28 0
210 -786 -207 0
-210 786 0
-210 207 0
211 -731 -749 0
-211 731 0
-211 749 0
212 -211 -778 0
-212 211 0
-212 778 0
213 -787 -210 0
-213 787 0
-213 210 0
214 -30 -25 0
-214 30 0
-214 25 0
215 -214 -26 0
-215 214 0
-215 26 0
216 -788 -213 0
-216 788 0
-216 213 0
217 -789 -16 0
-217 789 0
-217 16 0
218 -217 -726 0
-218 217 0
-218 726 0
219 -790 -216 0
-219 790 0
-219 216 0
220 -40 -731 0
-220 40 0
-220 731 0
221 -220 -16 0
-221 220 0
-221 16 0
222 -791 -219 0
-222 791 0
-222 219 0
223 -36 -18 0
-223 36 0
-223 18 0
224 -223 -764 0
-224 223 0
-224 764 0
225 -792 -222 0
-225 792 0
-225 222 0
226 -753 -729 0
-226 753 0
-226 729 0
227 -226 -760 0
-227 226 0
-227 760 0
228 -793 -225 0
-228 793 0
-228 225 0
229 -757 -693 0
-229 757 0
-229 693 0
230 -229 -794 0
-230 229 0
-230 794 0
231 -795 -228 0
-231 795 0
-231 228 0
232 -34 -29 0
-232 34 0
-232 29 0
233 -232 -17 0
-233 232 0
-233 17 0
234 -796 -231 0
-234 796 0
-234 231 0
235 -737 -29 0
-235 737 0
-235 29 0
236 -235 -757 0
-236 235 0
-236 757 0
237 -797 -234 0
-237 797 0
-237 234 0
238 -798 -728 0
-238 798 0
-238 728 0
239 -238 -760 0
-239 238 0
-239 760 0
240 -799 -237 0
-240 799 0
-240 237 0
241 -757 -716 0
-241 757 0
-241 716 0
242 -241 -780 0
-242 241 0
-242 780 0
243 -800 -240 0
-243 800 0
-243 240 0
244 -717 -13 0
-244 717 0
-244 13 0
245 -244 -743 0
-245 244 0
-245 743 0
246 -801 -243 0
-246 801 0
-246 243 0
247 -798 -700 0
-247 798 0
-247 700 0
248 -247 -717 0
-248 247 0
-248 717 0
249 -802 -246 0
-249 802 0
-249 246 0
250 -789 -34 0
-250 789 0
-250 34 0
251 -250 -24 0
-251 250 0
-251 24 0
252 -803 -249 0
-252 803 0
-252 249 0
253 -32 -5 0
-253 32 0
-253 5 0
254 -253 -778 0
-254 253 0
-254 778 0
255 -804 -252 0
-255 804 0
-255 252 0
256 -45 -734 0
-256 45 0
-256 734 0
257 -256 -735 0
-257 256 0
-257 735 0
258 -805 -255 0
-258 805 0
-258 255 0
259 -46 -760 0
-259 46 0
-259 760 0
260 -259 -806 0
-260 259 0
-260 806 0
261 -807 -258 0
-261 807 0
-261 258 0
262 -34 -713 0
-262 34 0
-262 713 0
263 -262 -764 0
-263 262 0
-263 764 0
264 -808 -261 0
-264 808 0
-264 261 0
265 -32 -703 0
-265 32 0
-265 703 0
266 -265 -10 0
-266 265 0
-266 10 0
267 -809 -264 0
-267 809 0
-267 264 0
268 -22 -749 0
-268 22 0
-268 749 0
269 -268 -28 0
-269 268 0
-269 28 0
270 -810 -267 0
-270 810 0
-270 267 0
271 -723 -719 0
-271 723 0
-271 719 0
272 -271 -811 0
-272 271 0
-272 811 0
273 -812 -270 0
-273 812 0
-273 270 0
274 -46 -1 0
-274 46 0
-274 1 0
275 -274 -771 0
-275 274 0
-275 771 0
276 -813 -273 0
-276 813 0
-276 273 0
277 -24 -15 0
-277 24 0
-277 15 0
278 -277 -780 0
-278 277 0
-278 780 0
279 -814 -276 0
-279 814 0
-279 276 0
280 -716 -707 0
-280 716 0
-280 707 0
281 -280 -17 0
-281 280 0
-281 17 0
282 -815 -279 0
-282 815 0
-282 279 0
283 -29 -706 0
-283 29 0
-283 706 0
284 -283 -764 0
-284 283 0
-284 764 0
285 -816 -282 0
-285 816 0
-285 282 0
286 -731 -734 0
-286 731 0
-286 734 0
287 -286 -33 0
-287 286 0
-287 33 0
288 -817 -285 0
-288 817 0
-288 285 0
289 -698 -818 0
-289 698 0
-289 818 0
290 -289 -726 0
-290 289 0
-290 726 0
291 -819 -288 0
-291 819 0
-291 288 0
292 -15 -5 0
-292 15 0
-292 5 0
293 -292 -22 0
-293 292 0
-293 22 0
294 -820 -291 0
-294 820 0
-294 291 0
295 -697 -706 0
-295 697 0
-295 706 0
296 -295 -48 0
-296 295 0
-296 48 0
297 -821 -294 0
-297 821 0
-297 294 0
298 -18 -768 0
-298 18 0
-298 768 0
299 -298 -723 0
-299 298 0
-299 723 0
300 -822 -297 0
-300 822 0
-300 297 0
301 -723 -794 0
-301 723 0
-301 794 0
302 -301 -765 0
-302 301 0
-302 765 0
303 -823 -300 0
-303 823 0
-303 300 0
304 -737 -21 0
-304 737 0
-304 21 0
305 -304 -778 0
-305 304 0
-305 778 0
306 -824 -303 0
-306 824 0
-306 303 0
307 -148 -753 0
-307 148 0
-307 753 0
308 -825 -306 0
-308 825 0
-308 306 0
309 -754 -1 0
-309 754 0
-309 1 0
310 -309 -31 0
-310 309 0
-310 31 0
311 -826 -308 0
-311 826 0
-311 308 0
312 -42 -777 0
-312 42 0
-312 777 0
313 -312 -754 0
-313 312 0
-313 754 0
314 -827 -311 0
-314 827 0
-314 311 0
315 -716 -719 0
-315 716 0
-315 719 0
316 -315 -37 0
-316 315 0
-316 37 0
317 -828 -314 0
-317 828 0
-317 314 0
318 -18 -697 0
-318 18 0
-318 697 0
319 -318 -2 0
-319 318 0
-319 2 0
320 -829 -317 0
-320 829 0
-320 317 0
321 -20 -10 0
-321 20 0
-321 10 0
322 -321 -733 0
-322 321 0
-322 733 0
323 -830 -320 0
-323 830 0
-323 320 0
324 -728 -749 0
-324 728 0
-324 749 0
325 -324 -831 0
-325 324 0
-325 831 0
326 -832 -323 0
-326 832 0
-326 323 0
327 -26 -710 0
-327 26 0
-327 710 0
328 -327 -17 0
-328 327 0
-328 17 0
329 -833 -326 0
-329 833 0
-329 326 0
330 -798 -2 0
-330 798 0
-330 2 0
331 -330 -716 0
-331 330 0
-331 716 0
332 -834 -329 0
-332 834 0
-332 329 0
333 -59 -27 0
-333 59 0
-333 27 0
334 -835 -332 0
-334 835 0
-334 332 0
335 -13 -10 0
-335 13 0
-335 10 0
336 -335 -28 0
-336 335 0
-336 28 0
337 -836 -334 0
-337 836 0
-337 334 0
338 -737 -13 0
-338 737 0
-338 13 0
339 -338 -723 0
-339 338 0
-339 723 0
340 -837 -337 0
-340 837 0
-340 337 0
341 -33 -707 0
-341 33 0
-341 707 0
342 -341 -11 0
-342 341 0
-342 11 0
343 -838 -340 0
-343 838 0
-343 340 0
344 -737 -14 0
-344 737 0
-344 14 0
345 -344 -771 0
-345 344 0
-345 771 0
346 -839 -343 0
-346 839 0
-346 343 0
347 -703 -710 0
-347 703 0
-347 710 0
348 -347 -780 0
-348 347 0
-348 780 0
349 -840 -346 0
-349 840 0
-349 346 0
350 -47 -23 0
-350 47 0
-350 23 0
351 -350 -841 0
-351 350 0
-351 841 0
352 -842 -349 0
-352 842 0
-352 349 0
353 -734 -7 0
-353 734 0
-353 7 0
354 -353 -735 0
-354 353 0
-354 735 0
355 -843 -352 0
-355 843 0
-355 352 0
356 -798 -697 0
-356 798 0
-356 697 0
357 -356 -831 0
-357 356 0
-357 831 0
358 -844 -355 0
-358 844 0
-358 355 0
359 -740 -13 0
-359 740 0
-359 13 0
360 -359 -721 0
-360 359 0
-360 721 0
361 -845 -358 0
-361 845 0
-361 358 0
362 -40 -11 0
-362 40 0
-362 11 0
363 -362 -726 0
-363 362 0
-363 726 0
364 -846 -361 0
-364 846 0
-364 361 0
365 -40 -5 0
-365 40 0
-365 5 0
366 -365 -778 0
-366 365 0
-366 778 0
367 -847 -364 0
-367 847 0
-367 364 0
368 -20 -706 0
-368 20 0
-368 706 0
369 -368 -764 0
-369 368 0
-369 764 0
370 -848 -367 0
-370 848 0
-370 367 0
371 -312 -765 0
-371 312 0
-371 765 0
372 -849 -370 0
-372 849 0
-372 370 0
373 -806 -5 0
-373 806 0
-373 5 0
374 -373 -764 0
-374 373 0
-374 764 0
375 -850 -372 0
-375 850 0
-375 372 0
376 -19 -719 0
-376 19 0
-376 719 0
377 -376 -794 0
-377 376 0
-377 794 0
378 -851 -375 0
-378 851 0
-378 375 0
379 -713 -9 0
-379 713 0
-379 9 0
380 -379 -28 0
-380 379 0
-380 28 0
381 -852 -378 0
-381 852 0
-381 378 0
382 -853 -854 0
-382 853 0
-382 854 0
383 -382 -24 0
-383 382 0
-383 24 0
384 -855 -381 0
-384 855 0
-384 381 0
385 -716 -2 0
-385 716 0
-385 2 0
386 -385 -37 0
-386 385 0
-386 37 0
387 -856 -384 0
-387 856 0
-387 384 0
388 -217 -831 0
-388 217 0
-388 831 0
389 -857 -387 0
-389 857 0
-389 387 0
390 -811 -7 0
-390 811 0
-390 7 0
391 -390 -806 0
-391 390 0
-391 806 0
392 -858 -389 0
-392 858 0
-392 389 0
393 -798 -7 0
-393 798 0
-393 7 0
394 -393 -43 0
-394 393 0
-394 43 0
395 -859 -392 0
-395 859 0
-395 392 0
396 -753 -778 0
-396 753 0
-396 778 0
397 -396 -43 0
-397 396 0
-397 43 0
398 -860 -395 0
-398 860 0
-398 395 0
399 -6 -693 0
-399 6 0
-399 693 0
400 -399 -806 0
-400 399 0
-400 806 0
401 -861 -398 0
-401 861 0
-401 398 0
402 -777 -15 0
-402 777 0
-402 15 0
403 -402 -734 0
-403 402 0
-403 734 0
404 -862 -401 0
-404 862 0
-404 401 0
405 -806 -789 0
-405 806 0
-405 789 0
406 -405 -743 0
-406 405 0
-406 743 0
407 -863 -404 0
-407 863 0
-407 404 0
408 -38 -19 0
-408 38 0
-408 19 0
409 -408 -21 0
-409 408 0
-409 21 0
410 -864 -407 0
-410 864 0
-410 407 0
411 -737 -693 0
-411 737 0
-411 693 0
412 -411 -42 0
-412 411 0
-412 42 0
413 -865 -410 0
-413 865 0
-413 410 0
414 -757 -771 0
-414 757 0
-414 771 0
415 -414 -43 0
-415 414 0
-415 43 0
416 -866 -413 0
-416 866 0
-416 413 0
417 -760 -14 0
-417 760 0
-417 14 0
418 -417 -35 0
-418 417 0
-418 35 0
419 -867 -416 0
-419 867 0
-419 416 0
420 -44 -9 0
-420 44 0
-420 9 0
421 -420 -780 0
-421 420 0
-421 780 0
422 -868 -419 0
-422 868 0
-422 419 0
423 -710 -698 0
-423 710 0
-423 698 0
424 -423 -3 0
-424 423 0
-424 3 0
425 -869 -422 0
-425 869 0
-425 422 0
426 -42 -768 0
-426 42 0
-426 768 0
427 -426 -778 0
-427 426 0
-427 778 0
428 -870 -425 0
-428 870 0
-428 425 0
429 -777 -704 0
-429 777 0
-429 704 0
430 -429 -811 0
-430 429 0
-430 811 0
431 -871 -428 0
-431 871 0
-431 428 0
432 -25 -5 0
-432 25 0
-432 5 0
433 -432 -9 0
-433 432 0
-433 9 0
434 -872 -431 0
-434 872 0
-434 431 0
435 -757 -733 0
-435 757 0
-435 733 0
436 -435 -12 0
-436 435 0
-436 12 0
437 -873 -434 0
-437 873 0
-437 434 0
438 -30 -703 0
-438 30 0
-438 703 0
439 -438 -34 0
-439 438 0
-439 34 0
440 -874 -437 0
-440 874 0
-440 437 0
441 -841 -728 0
-441 841 0
-441 728 0
442 -441 -743 0
-442 441 0
-442 743 0
443 -875 -440 0
-443 875 0
-443 440 0
444 -35 -768 0
-444 35 0
-444 768 0
445 -444 -794 0
-445 444 0
-445 794 0
446 -876 -443 0
-446 876 0
-446 443 0
447 -208 -735 0
-447 208 0
-447 735 0
448 -877 -446 0
-448 877 0
-448 446 0
449 -811 -693 0
-449 811 0
-449 693 0
450 -449 -765 0
-450 449 0
-450 765 0
451 -878 -448 0
-451 878 0
-451 448 0
452 -23 -723 0
-452 23 0
-452 723 0
453 -452 -697 0
-453 452 0
-453 697 0
454 -879 -451 0
-454 879 0
-454 451 0
455 -20 -831 0
-455 20 0
-455 831 0
456 -455 -754 0
-456 455 0
-456 754 0
457 -880 -454 0
-457 880 0
-457 454 0
458 -46 -29 0
-458 46 0
-458 29 0
459 -458 -45 0
-459 458 0
-459 45 0
460 -881 -457 0
-460 881 0
-460 457 0
461 -36 -22 0
-461 36 0
-461 22 0
462 -461 -726 0
-462 461 0
-462 726 0
463 -882 -460 0
-463 882 0
-463 460 0
464 -34 -33 0
-464 34 0
-464 33 0
465 -464 -716 0
-465 464 0
-465 716 0
466 -883 -463 0
-466 883 0
-466 463 0
467 -854 -693 0
-467 854 0
-467 693 0
468 -467 -697 0
-468 467 0
-468 697 0
469 -884 -466 0
-469 884 0
-469 466 0
470 -40 -719 0
-470 40 0
-470 719 0
471 -470 -28 0
-471 470 0
-471 28 0
472 -885 -469 0
-472 885 0
-472 469 0
473 -25 -777 0
-473 25 0
-473 777 0
474 -473 -1 0
-474 473 0
-474 1 0
475 -886 -472 0
-475 886 0
-475 472 0
476 -38 -719 0
-476 38 0
-476 719 0
477 -476 -28 0
-477 476 0
-477 28 0
478 -887 -475 0
-478 887 0
-478 475 0
479 -38 -698 0
-479 38 0
-479 698 0
480 -479 -28 0
-480 479 0
-480 28 0
481 -888 -478 0
-481 888 0
-481 478 0
482 -713 -13 0
-482 713 0
-482 13 0
483 -482 -771 0
-483 482 0
-483 771 0
484 -889 -481 0
-484 889 0
-484 481 0
485 -441 -6 0
-485 441 0
-485 6 0
486 -890 -484 0
-486 890 0
-486 484 0
487 -710 -700 0
-487 710 0
-487 700 0
488 -487 -21 0
-488 487 0
-488 21 0
489 -891 -486 0
-489 891 0
-489 486 0
490 -38 -14 0
-490 38 0
-490 14 0
491 -490 -32 0
-491 490 0
-491 32 0
492 -892 -489 0
-492 892 0
-492 489 0
493 -48 -724 0
-493 48 0
-493 724 0
494 -493 -37 0
-494 493 0
-494 37 0
495 -893 -492 0
-495 893 0
-495 492 0
496 -46 -5 0
-496 46 0
-496 5 0
497 -496 -33 0
-497 496 0
-497 33 0
498 -894 -495 0
-498 894 0
-498 495 0
499 -789 -719 0
-499 789 0
-499 719 0
500 -499 -26 0
-500 499 0
-500 26 0
501 -895 -498 0
-501 895 0
-501 498 0
502 -777 -20 0
-502 777 0
-502 20 0
503 -502 -811 0
-503 502 0
-503 811 0
504 -896 -501 0
-504 896 0
-504 501 0
505 -44 -707 0
-505 44 0
-505 707 0
506 -505 -28 0
-506 505 0
-506 28 0
507 -897 -504 0
-507 897 0
-507 504 0
508 -22 -693 0
-508 22 0
-508 693 0
509 -508 -698 0
-509 508 0
-509 698 0
510 -898 -507 0
-510 898 0
-510 507 0
511 -20 -700 0
-511 20 0
-511 700 0
512 -511 -3 0
-512 511 0
-512 3 0
513 -899 -510 0
-513 899 0
-513 510 0
514 -50 -7 0
-514 50 0
-514 7 0
515 -514 -831 0
-515 514 0
-515 831 0
516 -900 -513 0
-516 900 0
-516 513 0
517 -32 -4 0
-517 32 0
-517 4 0
518 -517 -33 0
-518 517 0
-518 33 0
519 -901 -516 0
-519 901 0
-519 516 0
520 -36 -698 0
-520 36 0
-520 698 0
521 -520 -735 0
-521 520 0
-521 735 0
522 -902 -519 0
-522 902 0
-522 519 0
523 -27 -16 0
-523 27 0
-523 16 0
524 -523 -765 0
-524 523 0
-524 765 0
525 -903 -522 0
-525 903 0
-525 522 0
526 -853 -32 0
-526 853 0
-526 32 0
527 -526 -48 0
-527 526 0
-527 48 0
528 -904 -525 0
-528 904 0
-528 525 0
529 -25 -697 0
-529 25 0
-529 697 0
530 -529 -733 0
-530 529 0
-530 733 0
531 -905 -528 0
-531 905 0
-531 528 0
532 -36 -734 0
-532 36 0
-532 734 0
533 -532 -754 0
-533 532 0
-533 754 0
534 -906 -531 0
-534 906 0
-534 531 0
535 -33 -724 0
-535 33 0
-535 724 0
536 -535 -726 0
-536 535 0
-536 726 0
537 -907 -534 0
-537 907 0
-537 534 0
538 -45 -6 0
-538 45 0
-538 6 0
539 -538 -717 0
-539 538 0
-539 717 0
540 -908 -537 0
-540 908 0
-540 537 0
541 -18 -4 0
-541 18 0
-541 4 0
542 -541 -735 0
-542 541 0
-542 735 0
543 -909 -540 0
-543 909 0
-543 540 0
544 -757 -11 0
-544 757 0
-544 11 0
545 -544 -27 0
-545 544 0
-545 27 0
546 -910 -543 0
-546 910 0
-546 543 0
547 -811 -700 0
-547 811 0
-547 700 0
548 -547 -27 0
-548 547 0
-548 27 0
549 -911 -546 0
-549 911 0
-549 546 0
550 -34 -777 0
-550 34 0
-550 777 0
551 -550 -44 0
-551 550 0
-551 44 0
552 -912 -549 0
-552 912 0
-552 549 0
553 -806 -697 0
-553 806 0
-553 697 0
554 -553 -716 0
-554 553 0
-554 716 0
555 -913 -552 0
-555 913 0
-555 552 0
556 -841 -737 0
-556 841 0
-556 737 0
557 -556 -26 0
-557 556 0
-557 26 0
558 -914 -555 0
-558 914 0
-558 555 0
559 -723 -4 0
-559 723 0
-559 4 0
560 -559 -764 0
-560 559 0
-560 764 0
561 -915 -558 0
-561 915 0
-561 558 0
562 -34 -24 0
-562 34 0
-562 24 0
563 -562 -43 0
-563 562 0
-563 43 0
564 -916 -561 0
-564 916 0
-564 561 0
565 -130 -44 0
-565 130 0
-565 44 0
566 -917 -564 0
-566 917 0
-566 564 0
567 -697 -10 0
-567 697 0
-567 10 0
568 -567 -811 0
-568 567 0
-568 811 0
569 -918 -566 0
-569 918 0
-569 566 0
570 -47 -841 0
-570 47 0
-570 841 0
571 -570 -831 0
-571 570 0
-571 831 0
572 -919 -569 0
-572 919 0
-572 569 0
573 -35 -6 0
-573 35 0
-573 6 0
574 -573 -716 0
-574 573 0
-574 716 0
575 -920 -572 0
-575 920 0
-575 572 0
576 -46 -734 0
-576 46 0
-576 734 0
577 -576 -778 0
-577 576 0
-577 778 0
578 -921 -575 0
-578 921 0
-578 575 0
579 -23 -703 0
-579 23 0
-579 703 0
580 -579 -724 0
-580 579 0
-580 724 0
581 -922 -578 0
-581 922 0
-581 578 0
582 -458 -723 0
-582 458 0
-582 723 0
583 -923 -581 0
-583 923 0
-583 581 0
584 -704 -768 0
-584 704 0
-584 768 0
585 -584 -771 0
-585 584 0
-585 771 0
586 -924 -583 0
-586 924 0
-586 583 0
587 -44 -36 0
-587 44 0
-587 36 0
588 -587 -780 0
-588 587 0
-588 780 0
589 -925 -586 0
-589 925 0
-589 586 0
590 -853 -789 0
-590 853 0
-590 789 0
591 -590 -45 0
-591 590 0
-591 45 0
592 -926 -589 0
-592 926 0
-592 589 0
593 -729 -5 0
-593 729 0
-593 5 0
594 -593 -707 0
-594 593 0
-594 707 0
595 -927 -592 0
-595 927 0
-595 592 0
596 -777 -706 0
-596 777 0
-596 706 0
597 -596 -726 0
-597 596 0
-597 726 0
598 -928 -595 0
-598 928 0
-598 595 0
599 -789 -778 0
-599 789 0
-599 778 0
600 -599 -12 0
-600 599 0
-600 12 0
601 -929 -598 0
-601 929 0
-601 598 0
602 -731 -710 0
-602 731 0
-602 710 0
603 -602 -811 0
-603 602 0
-603 811 0
604 -930 -601 0
-604 930 0
-604 601 0
605 -27 -771 0
-605 27 0
-605 771 0
606 -605 -764 0
-606 605 0
-606 764 0
607 -931 -604 0
-607 931 0
-607 604 0
608 -14 -9 0
-608 14 0
-608 9 0
609 -608 -724 0
-609 608 0
-609 724 0
610 -932 -607 0
-610 932 0
-610 607 0
611 -13 -1 0
-611 13 0
-611 1 0
612 -611 -33 0
-612 611 0
-612 33 0
613 -933 -610 0
-613 933 0
-613 610 0
614 -573 -31 0
-614 573 0
-614 31 0
615 -934 -613 0
-615 934 0
-615 613 0
616 -818 -768 0
-616 818 0
-616 768 0
617 -616 -733 0
-617 616 0
-617 733 0
618 -935 -615 0
-618 935 0
-618 615 0
619 -721 -818 0
-619 721 0
-619 818 0
620 -619 -16 0
-620 619 0
-620 16 0
621 -936 -618 0
-621 936 0
-621 618 0
622 -723 -15 0
-622 723 0
-622 15 0
623 -622 -43 0
-623 622 0
-623 43 0
624 -937 -621 0
-624 937 0
-624 621 0
625 -737 -7 0
-625 737 0
-625 7 0
626 -625 -728 0
-626 625 0
-626 728 0
627 -938 -624 0
-627 938 0
-627 624 0
628 -39 -24 0
-628 39 0
-628 24 0
629 -628 -31 0
-629 628 0
-629 31 0
630 -939 -627 0
-630 939 0
-630 627 0
631 -18 -6 0
-631 18 0
-631 6 0
632 -631 -771 0
-632 631 0
-632 771 0
633 -940 -630 0
-633 940 0
-633 630 0
634 -713 -5 0
-634 713 0
-634 5 0
635 -634 -21 0
-635 634 0
-635 21 0
636 -941 -633 0
-636 941 0
-636 633 0
637 -26 -14 0
-637 26 0
-637 14 0
638 -637 -43 0
-638 637 0
-638 43 0
639 -942 -636 0
-639 942 0
-639 636 0
640 -29 -777 0
-640 29 0
-640 777 0
641 -640 -45 0
-641 640 0
-641 45 0
642 -943 -639 0
-642 943 0
-642 639 0
643 -28 -6 0
-643 28 0
-643 6 0
644 -643 -17 0
-644 643 0
-644 17 0
645 -944 -642 0
-645 944 0
-645 642 0
646 -704 -7 0
-646 704 0
-646 7 0
647 -646 -754 0
-647 646 0
-647 754 0
648 -945 -645 0
-648 945 0
-648 645 0
649 -19 -768 0
-649 19 0
-649 768 0
650 -649 -27 0
-650 649 0
-650 27 0
651 -946 -648 0
-651 946 0
-651 648 0
652 -713 -11 0
-652 713 0
-652 11 0
653 -652 -27 0
-653 652 0
-653 27 0
654 -947 -651 0
-654 947 0
-654 651 0
655 -853 -733 0
-655 853 0
-655 733 0
656 -655 -735 0
-656 655 0
-656 735 0
657 -948 -654 0
-657 948 0
-657 654 0
658 -728 -1 0
-658 728 0
-658 1 0
659 -658 -743 0
-659 658 0
-659 743 0
660 -949 -657 0
-660 949 0
-660 657 0
661 -734 -6 0
-661 734 0
-661 6 0
662 -661 -43 0
-662 661 0
-662 43 0
663 -950 -660 0
-663 950 0
-663 660 0
664 -723 -703 0
-664 723 0
-664 703 0
665 -664 -42 0
-665 664 0
-665 42 0
666 -951 -663 0
-666 951 0
-666 663 0
667 -49 -740 0
-667 49 0
-667 740 0
668 -667 -37 0
-668 667 0
-668 37 0
669 -952 -666 0
-669 952 0
-669 666 0
670 -723 -13 0
-670 723 0
-670 13 0
671 -670 -811 0
-671 670 0
-671 811 0
672 -953 -669 0
-672 953 0
-672 669 0
673 -39 -21 0
-673 39 0
-673 21 0
674 -673 -11 0
-674 673 0
-674 11 0
675 -954 -672 0
-675 954 0
-675 672 0
676 -46 -723 0
-676 46 0
-676 723 0
677 -676 -2 0
-677 676 0
-677 2 0
678 -955 -675 0
-678 955 0
-678 675 0
679 -34 -21 0
-679 34 0
-679 21 0
680 -679 -11 0
-680 679 0
-680 11 0
681 -956 -678 0
-681 956 0
-681 678 0
682 -12 -6 0
-682 12 0
-682 6 0
683 -682 -780 0
-683 682 0
-683 780 0
684 -957 -681 0
-684 957 0
-684 681 0
685 -36 -768 0
-685 36 0
-685 768 0
686 -685 -754 0
-686 685 0
-686 754 0
687 -958 -684 0
-687 958 0
-687 684 0
688 -753 -39 0
-688 753 0
-688 39 0
689 -688 -717 0
-689 688 0
-689 717 0
690 -959 -687 0
-690 959 0
-690 687 0
691 -622 -794 0
-691 622 0
-691 794 0
692 -960 -690 0
-692 960 0
-692 690 0
-693 -5 0
693 5 0
-694 -54 0
694 54 0
-695 -52 0
695 52 0
-696 -57 0
696 57 0
-697 -11 0
697 11 0
-698 -10 0
698 10 0
-699 -60 0
699 60 0
-700 -14 0
700 14 0
-701 -63 0
701 63 0
-702 -66 0
702 66 0
-703 -19 0
703 19 0
-704 -18 0
704 18 0
-705 -69 0
705 69 0
-706 -1 0
706 1 0
-707 -20 0
707 20 0
-708 -72 0
708 72 0
-709 -75 0
709 75 0
-710 -15 0
710 15 0
-711 -78 0
711 78 0
-712 -81 0
712 81 0
-713 -25 0
713 25 0
-714 -22 0
714 22 0
-715 -84 0
715 84 0
-716 -27 0
716 27 0
-717 -28 0
717 28 0
-718 -87 0
718 87 0
-719 -8 0
719 8 0
-720 -90 0
720 90 0
-721 -30 0
721 30 0
-722 -93 0
722 93 0
-723 -21 0
723 21 0
-724 -3 0
724 3 0
-725 -96 0
725 96 0
-726 -17 0
726 17 0
-727 -99 0
727 99 0
-728 -33 0
728 33 0
-729 -32 0
729 32 0
-730 -102 0
730 102 0
-731 -34 0
731 34 0
-732 -105 0
732 105 0
-733 -35 0
733 35 0
-734 -13 0
734 13 0
-735 -24 0
735 24 0
-736 -108 0
736 108 0
-737 -36 0
737 36 0
-738 -111 0
738 111 0
-739 -114 0
739 114 0
-740 -38 0
740 38 0
-741 -117 0
741 117 0
-742 -120 0
742 120 0
-743 -43 0
743 43 0
-744 -123 0
744 123 0
-745 -126 0
745 126 0
-746 -128 0
746 128 0
-747 -131 0
747 131 0
-748 -134 0
748 134 0
-749 -9 0
749 9 0
-750 -137 0
750 137 0
-751 -140 0
751 140 0
-752 -143 0
752 143 0
-753 -45 0
753 45 0
-754 -44 0
754 44 0
-755 -146 0
755 146 0
-756 -149 0
756 149 0
-757 -40 0
757 40 0
-758 -152 0
758 152 0
-759 -155 0
759 155 0
-760 -42 0
760 42 0
-761 -158 0
761 158 0
-762 -161 0
762 161 0
-763 -164 0
763 164 0
-764 -31 0
764 31 0
-765 -49 0
765 49 0
-766 -167 0
766 167 0
-767 -170 0
767 170 0
-768 -4 0
768 4 0
-769 -173 0
769 173 0
-770 -176 0
770 176 0
-771 -12 0
771 12 0
-772 -179 0
772 179 0
-773 -182 0
773 182 0
-774 -185 0
774 185 0
-775 -188 0
775 188 0
-776 -191 0
776 191 0
-777 -23 0
777 23 0
-778 -16 0
778 16 0
-779 -194 0
779 194 0
-780 -37 0
780 37 0
-781 -197 0
781 197 0
-782 -200 0
782 200 0
-783 -203 0
783 203 0
-784 -206 0
784 206 0
-785 -39 0
785 39 0
-786 -209 0
786 209 0
-787 -212 0
787 212 0
-788 -215 0
788 215 0
-789 -46 0
789 46 0
-790 -218 0
790 218 0
-791 -221 0
791 221 0
-792 -224 0
792 224 0
-793 -227 0
793 227 0
-794 -6 0
794 6 0
-795 -230 0
795 230 0
-796 -233 0
796 233 0
-797 -236 0
797 236 0
-798 -47 0
798 47 0
-799 -239 0
799 239 0
-800 -242 0
800 242 0
-801 -245 0
801 245 0
-802 -248 0
802 248 0
-803 -251 0
803 251 0
-804 -254 0
804 254 0
-805 -257 0
805 257 0
-806 -48 0
806 48 0
-807 -260 0
807 260 0
-808 -263 0
808 263 0
-809 -266 0
809 266 0
-810 -269 0
810 269 0
-811 -26 0
811 26 0
-812 -272 0
812 272 0
-813 -275 0
813 275 0
-814 -278 0
814 278 0
-815 -281 0
815 281 0
-816 -284 0
816 284 0
-817 -287 0
817 287 0
-818 -7 0
818 7 0
-819 -290 0
819 290 0
-820 -293 0
820 293 0
-821 -296 0
821 296 0
-822 -299 0
822 299 0
-823 -302 0
823 302 0
-824 -305 0
824 305 0
-825 -307 0
825 307 0
-826 -310 0
826 310 0
-827 -313 0
827 313 0
-828 -316 0
828 316 0
-829 -319 0
829 319 0
-830 -322 0
830 322 0
-831 -2 0
831 2 0
-832 -325 0
832 325 0
-833 -328 0
833 328 0
-834 -331 0
834 331 0
-835 -333 0
835 333 0
-836 -336 0
836 336 0
-837 -339 0
837 339 0
-838 -342 0
838 342 0
-839 -345 0
839 345 0
-840 -348 0
840 348 0
-841 -41 0
841 41 0
-842 -351 0
842 351 0
-843 -354 0
843 354 0
-844 -357 0
844 357 0
-845 -360 0
845 360 0
-846 -363 0
846 363 0
-847 -366 0
847 366 0
-848 -369 0
848 369 0
-849 -371 0
849 371 0
-850 -374 0
850 374 0
-851 -377 0
851 377 0
-852 -380 0
852 380 0
-853 -50 0
853 50 0
-854 -29 0
854 29 0
-855 -383 0
855 383 0
-856 -386 0
856 386 0
-857 -388 0
857 388 0
-858 -391 0
858 391 0
-859 -394 0
859 394 0
-860 -397 0
860 397 0
-861 -400 0
861 400 0
-862 -403 0
862 403 0
-863 -406 0
863 406 0
-864 -409 0
864 409 0
-865 -412 0
865 412 0
-866 -415 0
866 415 0
-867 -418 0
867 418 0
-868 -421 0
868 421 0
-869 -424 0
869 424 0
-870 -427 0
870 427 0
-871 -430 0
871 430 0
-872 -433 0
872 433 0
-873 -436 0
873 436 0
-874 -439 0
874 439 0
-875 -442 0
875 442 0
-876 -445 0
876 445 0
-877 -447 0
877 447 0
-878 -450 0
878 450 0
-879 -453 0
879 453 0
-880 -456 0
880 456 0
-881 -459 0
881 459 0
-882 -462 0
882 462 0
-883 -465 0
883 465 0
-884 -468 0
884 468 0
-885 -471 0
885 471 0
-886 -474 0
886 474 0
-887 -477 0
887 477 0
-888 -480 0
888 480 0
-889 -483 0
889 483 0
-890 -485 0
890 485 0
-891 -488 0
891 488 0
-892 -491 0
892 491 0
-893 -494 0
893 494 0
-894 -497 0
894 497 0
-895 -500 0
895 500 0
-896 -503 0
896 503 0
-897 -506 0
897 506 0
-898 -509 0
898 509 0
-899 -512 0
899 512 0
-900 -515 0
900 515 0
-901 -518 0
901 518 0
-902 -521 0
902 521 0
-903 -524 0
903 524 0
-904 -527 0
904 527 0
-905 -530 0
905 530 0
-906 -533 0
906 533 0
-907 -536 0
907 536 0
-908 -539 0
908 539 0
-909 -542 0
909 542 0
-910 -545 0
910 545 0
-911 -548 0
911 548 0
-912 -551 0
912 551 0
-913 -554 0
913 554 0
-914 -557 0
914 557 0
-915 -560 0
915 560 0
-916 -563 0
916 563 0
-917 -565 0
917 565 0
-918 -568 0
918 568 0
-919 -571 0
919 571 0
-920 -574 0
920 574 0
-921 -577 0
921 577 0
-922 -580 0
922 580 0
-923 -582 0
923 582 0
-924 -585 0
924 585 0
-925 -588 0
925 588 0
-926 -591 0
926 591 0
-927 -594 0
927 594 0
-928 -597 0
928 597 0
-929 -600 0
929 600 0
-930 -603 0
930 603 0
-931 -606 0
931 606 0
-932 -609 0
932 609 0
-933 -612 0
933 612 0
-934 -614 0
934 614 0
-935 -617 0
935 617 0
-936 -620 0
936 620 0
-937 -623 0
937 623 0
-938 -626 0
938 626 0
-939 -629 0
939 629 0
-940 -632 0
940 632 0
-941 -635 0
941 635 0
-942 -638 0
942 638 0
-943 -641 0
943 641 0
-944 -644 0
944 644 0
-945 -647 0
945 647 0
-946 -650 0
946 650 0
-947 -653 0
947 653 0
-948 -656 0
948 656 0
-949 -659 0
949 659 0
-950 -662 0
950 662 0
-951 -665 0
951 665 0
-952 -668 0
952 668 0
-953 -671 0
953 671 0
-954 -674 0
954 674 0
-955 -677 0
955 677 0
-956 -680 0
956 680 0
-957 -683 0
957 683 0
-958 -686 0
958 686 0
-959 -689 0
959 689 0
-960 -691 0
960 691 0
692 0
